
  22   10
  10   10   10   10   10   10   10   10   10   10

   0   0   0   0   0   0   0   0   0   0   0   2 2 4 
   8  10  10  10  10  10  10  10  10  10  10   1 3 
   2  10  10  10  10  10  10  10  10  10  10   1 5 
   8  10  10  10  10  10  10  10  10  10  10   1 5 
   9  10  10  10  10  10  10  10  10  10  10   1 6 
   3  10  10  10  10  10  10  10  10  10  10   1 7 
   2  10  10  10  10  10  10  10  10  10  10   1 8 
   2  10  10  10  10  10  10  10  10  10  10   1 9 
   1  10  10  10  10  10  10  10  10  10  10   1 10 
   4  10  10  10  10  10  10  10  10  10  10   1 11 
   9  10  10  10  10  10  10  10  10  10  10   1 12 
   3  10  10  10  10  10  10  10  10  10  10   1 13 
   1  10  10  10  10  10  10  10  10  10  10   1 14 
   6  10  10  10  10  10  10  10  10  10  10   1 15 
   6  10  10  10  10  10  10  10  10  10  10   2 18 16 
   3  10  10  10  10  10  10  10  10  10  10   1 17 
   5  10  10  10  10  10  10  10  10  10  10   1 19 
   6  10  10  10  10  10  10  10  10  10  10   1 19 
   5  10  10  10  10  10  10  10  10  10  10   1 20 
   2  10  10  10  10  10  10  10  10  10  10   1 21 
   2  10  10  10  10  10  10  10  10  10  10   1 22
   0   0   0   0   0   0   0   0   0   0   0   0 
